set VV := 0 1 2 3 4 5 6 7 8 9 10 11 12 13 14 15 16 17 18 19 20 21 22 23 24 25 26 27 28 29 30 31 32 33 34 35 36 37 38 39 40 41 42 43 44 45 ;
set VS := 0 1 2 3 4 5 6 7 8 9 10 11 12 13 14 15 16 17 18 19 20 21 22 23 24 25 26 27 28 29 30 31 32 33 34 35 36 37 38 39 40 41 42 43 44 45 46 47 48 49 50 51 52 53 54 55 56 57 58 59 60 61 62 63 64 65 66 67 68 69 70 71 72 73 74 75 76 77 78 79 80 81 82 83 84 85 86 87 88 89 90 91 92 93 94 95 ;
param cv := 
0 10
1 12
2 13
3 21
4 25
5 18
6 22
7 23
8 11
9 20
10 10
11 24
12 22
13 25
14 19
15 25
16 16
17 15
18 22
19 25
20 18
21 20
22 12
23 13
24 23
25 21
26 14
27 23
28 10
29 14
30 15
31 14
32 24
33 14
34 19
35 19
36 21
37 14
38 21
39 17
40 11
41 14
42 20
43 22
44 18
45 19
;
param cs := 
0 20
1 21
2 22
3 30
4 26
5 25
6 24
7 31
8 20
9 34
10 33
11 35
12 39
13 31
14 24
15 35
16 27
17 26
18 30
19 36
20 23
21 27
22 39
23 36
24 31
25 29
26 28
27 27
28 37
29 26
30 34
31 27
32 22
33 26
34 28
35 39
36 35
37 31
38 34
39 22
40 34
41 26
42 23
43 36
44 23
45 30
46 39
47 34
48 21
49 35
50 30
51 25
52 37
53 30
54 21
55 36
56 34
57 22
58 40
59 32
60 27
61 35
62 37
63 38
64 40
65 22
66 32
67 38
68 22
69 27
70 38
71 39
72 33
73 26
74 20
75 39
76 29
77 34
78 29
79 36
80 22
81 32
82 28
83 31
84 38
85 37
86 32
87 22
88 32
89 40
90 27
91 23
92 29
93 23
94 30
95 33
;
param bv:	 0 1 2 3 4 5 6 7 8 9 10 11 12 13 14 15 16 17 18 19 20 21 22 23 24 25 26 27 28 29 30 31 32 33 34 35 36 37 38 39 40 41 42 43 44 45 := 
		0 0 0 0 14 0 12 0 21 0 18 20 0 0 0 24 0 0 0 0 0 0 0 0 0 0 0 0 0 0 0 0 18 12 0 0 0 0 0 0 0 0 0 0 0 0 21 
		1 0 0 0 0 0 12 0 19 0 0 0 0 14 0 0 19 0 0 0 0 10 0 0 0 0 0 0 0 0 0 0 0 0 0 0 0 0 0 11 0 14 0 0 0 0 0 
		2 0 0 0 0 0 0 10 0 10 0 0 0 0 0 0 0 0 0 0 0 0 0 0 0 0 0 0 0 0 14 0 0 0 0 0 0 0 11 0 0 0 0 24 23 0 0 
		3 0 0 0 0 24 0 0 0 14 0 0 0 0 0 0 0 0 0 0 0 0 0 0 0 0 0 13 0 0 16 0 0 0 0 0 0 0 0 0 19 0 0 0 0 0 0 
		4 0 0 0 0 0 0 0 0 0 20 0 0 0 20 0 24 0 18 0 0 12 0 0 12 0 0 0 0 19 0 0 20 23 0 0 0 0 0 0 0 0 0 0 0 25 0 
		5 0 0 0 0 0 0 0 0 21 0 0 0 0 10 12 0 0 0 0 0 0 0 0 0 25 0 0 0 0 0 0 0 0 0 0 23 0 0 13 0 0 0 0 0 0 0 
		6 0 0 0 0 0 0 0 0 0 0 0 0 0 0 0 0 0 0 0 0 12 0 0 23 0 0 0 0 0 23 0 0 0 0 0 0 0 10 0 0 0 0 0 0 0 0 
		7 0 0 0 0 0 0 0 0 0 0 20 0 0 0 0 0 0 0 0 0 0 0 0 0 0 0 0 0 0 21 0 0 0 0 0 0 0 0 0 0 0 0 0 17 0 0 
		8 0 0 0 0 0 0 0 0 0 0 0 15 0 0 0 0 0 0 0 0 0 0 0 14 0 0 0 22 11 0 22 0 0 0 11 0 17 0 0 0 0 0 24 0 0 0 
		9 0 0 0 0 0 0 0 0 0 0 24 0 0 0 12 0 0 0 0 0 0 0 0 19 11 0 0 0 0 0 14 0 0 0 20 0 0 0 0 0 0 0 0 0 0 0 
		10 0 0 0 0 0 0 0 0 0 0 0 0 0 0 0 0 0 0 0 0 0 0 0 0 0 0 0 19 0 0 0 11 0 0 0 0 0 0 0 0 0 0 0 0 0 0 
		11 0 0 0 0 0 0 0 0 0 0 0 0 0 0 0 0 0 0 0 0 0 0 0 0 0 0 0 0 0 0 0 0 0 12 0 0 0 0 17 0 0 0 0 0 0 0 
		12 0 0 0 0 0 0 0 0 0 0 0 0 0 0 0 0 0 0 0 0 0 0 0 0 0 0 0 0 0 0 21 0 0 0 0 0 0 0 0 0 0 0 0 0 0 0 
		13 0 0 0 0 0 0 0 0 0 0 0 0 0 0 0 0 0 0 0 0 0 0 0 0 0 0 0 0 0 0 0 0 0 0 0 0 0 0 0 18 0 0 16 0 0 0 
		14 0 0 0 0 0 0 0 0 0 0 0 0 0 0 0 0 0 0 0 0 0 0 0 20 11 0 0 0 0 0 22 13 0 0 0 0 0 0 13 0 0 11 0 0 23 0 
		15 0 0 0 0 0 0 0 0 0 0 0 0 0 0 0 0 21 0 0 0 0 0 0 0 0 23 0 0 0 0 0 0 0 0 0 0 0 0 0 0 0 0 0 0 0 0 
		16 0 0 0 0 0 0 0 0 0 0 0 0 0 0 0 0 0 0 0 0 0 0 0 0 0 0 0 0 0 0 11 0 0 0 0 0 0 10 0 0 0 21 0 0 0 20 
		17 0 0 0 0 0 0 0 0 0 0 0 0 0 0 0 0 0 0 0 0 0 0 0 0 11 0 0 0 0 0 0 21 0 0 0 0 0 0 0 11 0 0 0 0 0 0 
		18 0 0 0 0 0 0 0 0 0 0 0 0 0 0 0 0 0 0 0 0 0 0 0 15 17 0 0 18 0 0 0 0 0 0 0 0 0 0 0 0 19 0 15 0 0 0 
		19 0 0 0 0 0 0 0 0 0 0 0 0 0 0 0 0 0 0 0 0 0 0 0 0 24 0 0 0 0 21 0 0 0 0 0 18 0 0 0 0 0 25 0 0 0 0 
		20 0 0 0 0 0 0 0 0 0 0 0 0 0 0 0 0 0 0 0 0 0 0 23 20 0 0 10 0 0 0 15 0 0 0 0 17 0 0 0 0 0 0 0 0 0 0 
		21 0 0 0 0 0 0 0 0 0 0 0 0 0 0 0 0 0 0 0 0 0 0 0 0 0 0 0 0 0 0 23 0 20 0 0 0 21 0 0 0 0 0 0 0 0 0 
		22 0 0 0 0 0 0 0 0 0 0 0 0 0 0 0 0 0 0 0 0 0 0 0 0 0 0 0 0 0 0 0 0 0 0 20 0 0 0 0 0 19 0 0 23 0 0 
		23 0 0 0 0 0 0 0 0 0 0 0 0 0 0 0 0 0 0 0 0 0 0 0 0 0 0 0 0 14 20 24 0 0 0 0 0 0 17 0 0 15 0 0 0 0 17 
		24 0 0 0 0 0 0 0 0 0 0 0 0 0 0 0 0 0 0 0 0 0 0 0 0 0 0 0 0 0 0 0 21 0 0 13 0 0 0 0 0 0 0 0 0 0 0 
		25 0 0 0 0 0 0 0 0 0 0 0 0 0 0 0 0 0 0 0 0 0 0 0 0 0 0 0 0 0 0 0 0 0 0 0 0 0 0 0 0 0 0 0 0 0 0 
		26 0 0 0 0 0 0 0 0 0 0 0 0 0 0 0 0 0 0 0 0 0 0 0 0 0 0 0 0 17 0 0 20 0 0 0 0 0 0 0 0 0 0 19 0 22 0 
		27 0 0 0 0 0 0 0 0 0 0 0 0 0 0 0 0 0 0 0 0 0 0 0 0 0 0 0 0 0 0 0 0 0 0 0 0 21 0 0 0 0 0 0 0 0 0 
		28 0 0 0 0 0 0 0 0 0 0 0 0 0 0 0 0 0 0 0 0 0 0 0 0 0 0 0 0 0 21 0 0 0 0 0 0 0 0 0 0 11 0 0 0 0 0 
		29 0 0 0 0 0 0 0 0 0 0 0 0 0 0 0 0 0 0 0 0 0 0 0 0 0 0 0 0 0 0 0 23 0 20 11 0 0 10 0 0 0 0 0 0 0 0 
		30 0 0 0 0 0 0 0 0 0 0 0 0 0 0 0 0 0 0 0 0 0 0 0 0 0 0 0 0 0 0 0 0 0 0 0 0 0 0 0 0 0 0 0 0 0 0 
		31 0 0 0 0 0 0 0 0 0 0 0 0 0 0 0 0 0 0 0 0 0 0 0 0 0 0 0 0 0 0 0 0 0 0 0 0 0 0 0 0 0 23 0 0 0 21 
		32 0 0 0 0 0 0 0 0 0 0 0 0 0 0 0 0 0 0 0 0 0 0 0 0 0 0 0 0 0 0 0 0 0 0 0 0 0 0 0 16 0 0 0 0 0 0 
		33 0 0 0 0 0 0 0 0 0 0 0 0 0 0 0 0 0 0 0 0 0 0 0 0 0 0 0 0 0 0 0 0 0 0 0 0 0 0 23 0 0 0 0 0 0 0 
		34 0 0 0 0 0 0 0 0 0 0 0 0 0 0 0 0 0 0 0 0 0 0 0 0 0 0 0 0 0 0 0 0 0 0 0 0 0 21 0 0 10 0 0 0 0 0 
		35 0 0 0 0 0 0 0 0 0 0 0 0 0 0 0 0 0 0 0 0 0 0 0 0 0 0 0 0 0 0 0 0 0 0 0 0 0 0 0 0 0 11 0 0 0 0 
		36 0 0 0 0 0 0 0 0 0 0 0 0 0 0 0 0 0 0 0 0 0 0 0 0 0 0 0 0 0 0 0 0 0 0 0 0 0 0 0 0 0 0 0 0 0 0 
		37 0 0 0 0 0 0 0 0 0 0 0 0 0 0 0 0 0 0 0 0 0 0 0 0 0 0 0 0 0 0 0 0 0 0 0 0 0 0 0 0 0 0 0 0 0 0 
		38 0 0 0 0 0 0 0 0 0 0 0 0 0 0 0 0 0 0 0 0 0 0 0 0 0 0 0 0 0 0 0 0 0 0 0 0 0 0 0 0 0 0 0 0 0 0 
		39 0 0 0 0 0 0 0 0 0 0 0 0 0 0 0 0 0 0 0 0 0 0 0 0 0 0 0 0 0 0 0 0 0 0 0 0 0 0 0 0 0 0 20 0 0 0 
		40 0 0 0 0 0 0 0 0 0 0 0 0 0 0 0 0 0 0 0 0 0 0 0 0 0 0 0 0 0 0 0 0 0 0 0 0 0 0 0 0 0 0 0 0 0 0 
		41 0 0 0 0 0 0 0 0 0 0 0 0 0 0 0 0 0 0 0 0 0 0 0 0 0 0 0 0 0 0 0 0 0 0 0 0 0 0 0 0 0 0 0 0 0 0 
		42 0 0 0 0 0 0 0 0 0 0 0 0 0 0 0 0 0 0 0 0 0 0 0 0 0 0 0 0 0 0 0 0 0 0 0 0 0 0 0 0 0 0 0 0 0 0 
		43 0 0 0 0 0 0 0 0 0 0 0 0 0 0 0 0 0 0 0 0 0 0 0 0 0 0 0 0 0 0 0 0 0 0 0 0 0 0 0 0 0 0 0 0 0 0 
		44 0 0 0 0 0 0 0 0 0 0 0 0 0 0 0 0 0 0 0 0 0 0 0 0 0 0 0 0 0 0 0 0 0 0 0 0 0 0 0 0 0 0 0 0 0 0 
		45 0 0 0 0 0 0 0 0 0 0 0 0 0 0 0 0 0 0 0 0 0 0 0 0 0 0 0 0 0 0 0 0 0 0 0 0 0 0 0 0 0 0 0 0 0 0 
;
param bs:	 0 1 2 3 4 5 6 7 8 9 10 11 12 13 14 15 16 17 18 19 20 21 22 23 24 25 26 27 28 29 30 31 32 33 34 35 36 37 38 39 40 41 42 43 44 45 46 47 48 49 50 51 52 53 54 55 56 57 58 59 60 61 62 63 64 65 66 67 68 69 70 71 72 73 74 75 76 77 78 79 80 81 82 83 84 85 86 87 88 89 90 91 92 93 94 95 := 
		0 0 0 39 0 0 0 0 0 0 0 0 0 0 40 0 0 0 30 26 31 0 0 0 0 0 0 0 0 0 0 27 0 0 0 0 0 0 0 0 21 27 0 0 0 0 0 25 0 0 0 31 0 0 0 0 20 0 0 0 0 0 0 25 0 0 0 0 0 0 0 0 0 0 0 0 0 0 0 27 0 0 0 0 0 0 0 0 0 0 40 0 0 0 0 0 0 
		1 0 0 0 31 0 0 0 0 0 0 32 0 0 0 0 0 0 0 0 0 0 34 0 0 0 0 38 22 36 0 0 0 0 0 0 0 0 0 0 0 0 0 0 0 0 0 0 23 24 0 0 0 0 0 0 0 0 0 21 0 0 0 0 0 28 0 32 0 0 0 0 0 31 20 24 40 0 0 0 0 0 29 0 0 0 0 34 0 0 0 0 0 0 0 0 32 
		2 39 0 0 0 0 0 0 0 0 0 0 0 0 0 30 0 0 0 0 0 0 0 0 0 0 0 0 0 0 0 0 0 0 0 0 0 0 0 0 0 0 0 0 31 0 0 0 0 0 0 0 0 0 33 0 0 0 0 0 0 0 0 0 0 0 0 0 0 0 0 0 0 0 0 25 0 0 0 23 0 0 0 0 0 25 33 0 0 0 0 0 0 0 0 0 0 
		3 0 31 0 0 0 0 0 0 0 0 0 0 0 0 0 0 0 0 0 0 0 0 0 0 0 0 0 31 0 0 0 37 0 0 0 0 0 0 0 0 0 0 0 0 0 0 0 0 0 0 0 0 0 0 28 0 0 0 0 0 0 0 0 0 0 0 0 0 0 0 0 0 29 28 0 0 0 0 0 0 0 0 0 0 22 0 0 0 0 0 0 0 0 0 0 0 
		4 0 0 0 0 0 0 0 0 0 0 0 0 27 0 0 0 0 0 0 0 0 37 0 0 0 0 0 0 0 0 0 0 0 0 0 0 0 0 0 0 29 0 0 0 0 0 0 0 38 0 0 0 0 0 0 0 0 0 0 0 0 35 0 40 0 0 0 0 0 0 0 0 0 0 0 0 0 0 0 0 0 0 0 0 0 0 0 0 0 0 0 0 0 0 0 0 
		5 0 0 0 0 0 0 0 0 38 0 0 0 0 0 0 0 0 0 0 0 0 0 0 0 0 0 0 0 0 0 0 35 0 0 28 0 0 0 0 0 0 0 0 0 0 0 0 0 0 0 28 36 0 0 0 0 0 0 34 0 0 0 0 21 0 0 0 0 0 0 0 0 0 0 0 0 0 0 0 0 0 0 0 0 0 0 0 0 0 0 0 0 0 25 0 0 
		6 0 0 0 0 0 0 0 37 0 0 0 30 28 0 0 21 0 0 36 0 25 0 0 0 0 0 0 0 0 0 24 0 0 0 0 0 0 39 0 0 0 0 0 0 0 0 0 0 0 0 0 0 32 0 0 0 0 0 0 0 0 0 32 0 0 0 0 0 0 0 40 0 0 0 0 0 0 0 0 0 0 0 29 0 26 0 0 0 0 0 0 0 0 0 0 0 
		7 0 0 0 0 0 0 37 0 0 0 0 0 0 0 0 36 0 0 0 0 0 0 0 0 0 0 0 0 0 0 0 0 0 0 0 0 0 27 0 0 0 0 0 0 0 0 0 0 0 0 0 0 0 0 0 0 0 0 0 34 0 21 0 0 0 23 23 0 0 0 0 0 0 34 0 0 0 0 0 0 0 0 0 0 0 0 0 27 0 0 0 0 0 0 0 0 
		8 0 0 0 0 0 38 0 0 0 0 0 0 0 0 0 0 0 0 0 0 0 0 0 0 0 0 0 0 23 0 31 0 0 0 0 0 0 0 0 0 0 0 0 0 0 0 0 0 0 0 0 0 0 20 0 0 0 0 0 0 0 0 40 0 0 0 0 0 0 0 0 36 0 0 0 0 0 0 0 0 0 0 0 0 0 0 0 0 0 0 0 0 0 0 0 0 
		9 0 0 0 0 0 0 0 0 0 0 0 0 0 0 0 0 0 0 0 0 0 0 0 0 0 0 0 0 0 0 0 0 0 0 31 0 0 0 0 0 0 0 0 0 0 37 0 0 40 0 0 0 0 0 0 0 0 0 0 0 0 0 0 0 0 0 0 37 0 0 21 0 0 0 0 0 38 0 0 0 0 0 0 0 0 0 0 0 0 33 31 0 0 0 0 0 
		10 0 32 0 0 0 0 0 0 0 0 0 0 0 0 0 0 0 21 34 0 0 0 0 0 25 0 0 0 0 0 37 0 0 0 0 0 0 0 0 0 0 0 0 0 0 34 0 0 0 24 0 0 34 0 0 20 36 0 0 0 0 0 0 0 0 0 0 0 0 33 0 0 0 0 0 27 0 34 0 0 0 0 0 0 0 0 0 0 0 0 0 0 0 0 0 22 
		11 0 0 0 0 0 0 30 0 0 0 0 0 0 0 0 0 0 0 35 0 21 0 0 0 0 0 0 0 0 0 0 0 0 0 0 0 0 0 0 0 0 0 0 0 0 0 20 0 0 0 0 0 0 35 0 0 0 27 0 0 31 0 0 0 0 0 0 0 0 0 0 0 21 0 0 0 0 0 0 0 0 0 0 24 0 0 29 0 0 0 30 0 39 0 0 0 
		12 0 0 0 0 27 0 28 0 0 0 0 0 0 0 0 0 25 0 0 0 0 0 0 0 20 0 0 0 0 0 36 0 37 0 0 0 25 0 0 0 0 0 0 0 0 0 0 0 0 0 0 0 0 0 0 0 0 0 33 0 0 34 24 0 0 0 39 0 0 0 0 0 0 0 20 0 0 0 0 0 0 0 0 0 0 0 0 26 0 0 0 39 0 31 0 0 
		13 40 0 0 0 0 0 0 0 0 0 0 0 0 0 0 0 0 0 40 0 0 0 0 0 0 0 0 0 0 0 0 0 0 0 0 0 0 0 0 0 0 0 26 0 25 0 0 0 0 0 0 0 0 0 22 0 0 0 0 0 0 0 0 0 0 0 0 0 0 39 25 0 38 20 0 31 0 0 0 0 0 0 0 0 22 0 0 0 0 0 0 0 0 0 0 21 
		14 0 0 30 0 0 0 0 0 0 0 0 0 0 0 0 35 0 0 0 0 0 0 0 0 0 0 0 0 0 0 37 0 0 0 0 0 0 24 0 0 0 33 0 0 0 0 0 0 0 0 0 0 0 0 0 0 0 0 0 0 0 0 0 0 0 0 0 0 0 0 0 0 0 0 30 0 0 39 0 0 0 39 0 0 0 0 39 23 27 0 0 0 0 0 0 0 
		15 0 0 0 0 0 0 21 36 0 0 0 0 0 0 35 0 28 0 0 0 0 0 0 0 0 0 0 0 31 0 0 0 0 0 0 0 0 0 0 0 0 0 0 0 0 0 0 0 0 0 0 0 0 0 0 0 0 0 0 0 0 0 32 0 0 0 0 0 0 0 0 0 0 0 0 0 0 0 0 0 0 0 36 0 0 0 0 0 0 0 0 0 0 0 0 0 
		16 0 0 0 0 0 0 0 0 0 0 0 0 25 0 0 28 0 0 0 0 0 0 0 0 0 36 0 0 0 0 0 0 0 0 0 0 0 0 0 0 0 0 0 0 0 0 0 0 0 0 0 0 0 0 0 0 0 0 0 0 0 0 23 0 0 0 36 0 0 0 0 0 0 0 0 0 0 0 0 0 0 0 0 0 0 0 0 0 21 0 0 0 0 0 39 0 
		17 30 0 0 0 0 0 0 0 0 0 21 0 0 0 0 0 0 0 0 0 0 0 0 0 0 0 23 36 0 0 0 25 0 0 0 0 0 0 0 0 0 0 0 23 0 39 0 0 0 0 0 0 0 0 29 40 20 0 0 0 0 0 40 0 0 0 0 0 0 25 0 0 0 20 0 23 0 0 0 0 0 0 0 30 25 0 0 0 0 32 0 0 31 0 0 0 
		18 26 0 0 0 0 0 36 0 0 0 34 35 0 40 0 0 0 0 0 26 0 0 0 20 20 0 0 0 0 0 0 0 0 0 0 0 0 24 0 0 0 0 0 27 0 0 0 21 0 0 0 29 0 0 0 0 35 0 0 0 30 0 32 31 0 0 0 0 24 0 0 0 0 0 0 26 0 0 0 0 0 35 0 40 38 0 38 0 0 0 0 0 0 0 0 0 
		19 31 0 0 0 0 0 0 0 0 0 0 0 0 0 0 0 0 0 26 0 0 0 0 0 21 0 0 0 0 0 0 22 24 0 0 0 0 26 0 0 0 0 22 0 0 36 0 0 0 0 0 0 0 0 36 29 0 0 0 0 0 0 23 21 22 0 0 0 0 0 0 38 20 0 0 0 0 0 0 0 0 0 0 0 0 0 20 29 27 0 0 0 0 0 0 0 
		20 0 0 0 0 0 0 25 0 0 0 0 21 0 0 0 0 0 0 0 0 0 0 0 20 0 0 25 0 0 0 0 22 0 0 0 26 25 0 0 0 0 0 0 0 0 0 0 0 0 0 0 0 0 0 26 0 38 0 0 0 0 0 27 0 0 35 0 0 0 40 0 24 0 0 0 0 0 0 0 0 0 0 0 0 0 0 0 28 23 31 0 0 0 0 0 0 
		21 0 34 0 0 37 0 0 0 0 0 0 0 0 0 0 0 0 0 0 0 0 0 0 0 0 0 0 0 0 0 39 0 0 0 0 0 0 0 0 0 0 0 0 0 0 0 0 0 0 0 0 0 0 0 0 29 0 0 0 0 0 0 0 0 0 0 0 0 0 0 0 0 0 0 0 0 0 0 0 0 0 0 0 0 0 23 32 0 0 0 0 0 0 0 0 0 
		22 0 0 0 0 0 0 0 0 0 0 0 0 0 0 0 0 0 0 0 0 0 0 0 0 39 0 0 20 0 38 0 22 0 38 0 0 0 35 0 0 0 0 0 0 0 0 36 0 0 0 0 0 26 0 0 0 0 27 0 0 0 0 0 0 0 0 0 26 27 0 21 0 0 0 0 0 0 0 0 0 21 0 0 0 0 0 0 0 0 0 0 0 0 0 0 0 
		23 0 0 0 0 0 0 0 0 0 0 0 0 0 0 0 0 0 0 20 0 20 0 0 0 0 0 0 0 0 0 0 0 0 0 0 0 0 0 0 0 0 0 0 0 0 0 0 0 20 0 0 0 0 0 0 0 0 0 0 0 0 0 0 37 0 0 31 0 36 0 0 0 0 0 0 0 0 0 0 0 0 0 0 0 0 0 0 37 0 0 0 0 0 0 0 0 
		24 0 0 0 0 0 0 0 0 0 0 25 0 20 0 0 0 0 0 20 21 0 0 39 0 0 0 0 0 0 0 0 0 0 0 0 0 0 0 0 0 0 0 0 0 0 0 0 0 0 33 0 0 0 0 0 0 0 0 0 0 0 0 0 0 32 0 28 20 39 0 0 0 0 30 0 35 0 0 0 0 0 0 0 0 0 0 0 0 0 0 24 32 0 0 0 0 
		25 0 0 0 0 0 0 0 0 0 0 0 0 0 0 0 0 36 0 0 0 0 0 0 0 0 0 0 0 0 0 0 0 0 0 0 0 0 0 0 0 0 0 0 0 0 0 0 0 0 0 0 0 0 0 0 0 0 0 0 0 0 0 34 0 0 0 0 0 0 0 0 0 0 0 0 0 0 0 0 0 0 0 0 0 0 0 0 0 0 0 0 0 0 0 0 0 
		26 0 38 0 0 0 0 0 0 0 0 0 0 0 0 0 0 0 23 0 0 25 0 0 0 0 0 0 0 0 0 0 0 0 0 37 0 0 0 0 0 0 0 35 37 0 0 0 0 0 0 0 0 0 0 0 0 0 0 0 36 0 0 0 0 0 0 0 0 0 0 0 0 36 0 0 0 0 0 0 0 0 0 0 0 0 0 0 26 40 0 0 0 0 0 0 0 
		27 0 22 0 31 0 0 0 0 0 0 0 0 0 0 0 0 0 36 0 0 0 0 20 0 0 0 0 0 0 0 0 0 0 0 0 0 0 0 0 0 0 0 0 0 0 0 0 0 0 0 0 0 0 0 0 0 0 22 0 0 0 0 0 0 0 0 0 0 26 0 0 0 0 31 0 0 0 0 0 0 0 0 0 0 0 0 0 0 0 22 0 0 0 0 0 39 
		28 0 36 0 0 0 0 0 0 23 0 0 0 0 0 0 31 0 0 0 0 0 0 0 0 0 0 0 0 0 0 0 0 0 0 0 0 0 0 0 21 34 0 0 0 0 0 0 0 30 0 0 0 0 0 0 0 0 0 0 0 0 0 0 0 40 38 0 0 0 0 0 0 0 0 0 0 35 0 31 0 0 0 0 0 0 0 0 0 0 0 0 0 0 0 0 24 
		29 0 0 0 0 0 0 0 0 0 0 0 0 0 0 0 0 0 0 0 0 0 0 38 0 0 0 0 0 0 0 26 0 0 0 0 0 0 0 0 0 0 0 0 40 0 0 0 0 0 0 0 0 0 0 0 0 0 25 0 0 0 0 0 0 0 0 0 0 0 0 0 0 0 0 0 0 0 26 0 0 0 0 0 0 0 0 0 0 0 0 0 0 0 0 0 0 
		30 27 0 0 0 0 0 24 0 31 0 37 0 36 0 37 0 0 0 0 0 0 39 0 0 0 0 0 0 0 26 0 0 0 0 0 0 0 0 0 32 0 0 0 0 0 0 0 34 0 25 0 0 0 0 0 21 0 30 0 0 29 0 0 0 0 24 0 0 0 0 0 0 0 21 0 0 0 0 36 30 24 0 0 0 0 0 0 0 0 0 0 0 0 0 0 0 
		31 0 0 0 37 0 35 0 0 0 0 0 0 0 0 0 0 0 25 0 22 22 0 22 0 0 0 0 0 0 0 0 0 0 32 0 0 0 0 0 0 0 0 37 0 0 21 0 0 0 0 0 0 0 0 0 0 0 0 0 0 0 0 0 0 35 0 0 0 28 0 21 0 0 35 0 0 0 0 33 0 0 0 0 0 0 0 0 0 0 0 0 0 0 0 0 0 
		32 0 0 0 0 0 0 0 0 0 0 0 0 37 0 0 0 0 0 0 24 0 0 0 0 0 0 0 0 0 0 0 0 0 0 0 0 0 0 0 0 0 0 0 0 0 0 29 0 0 0 0 0 0 0 0 0 0 0 0 0 0 0 0 31 0 30 32 0 0 0 0 0 0 0 0 0 0 0 0 0 0 0 0 0 0 0 0 0 29 0 0 0 0 0 0 0 
		33 0 0 0 0 0 0 0 0 0 0 0 0 0 0 0 0 0 0 0 0 0 0 38 0 0 0 0 0 0 0 0 32 0 0 0 0 0 0 0 0 0 0 0 0 0 0 0 0 0 33 0 0 22 0 0 0 0 0 0 0 0 0 0 0 0 0 0 0 26 0 0 0 0 0 0 0 0 0 0 0 0 0 0 0 0 0 0 0 0 0 0 0 0 0 0 0 
		34 0 0 0 0 0 28 0 0 0 31 0 0 0 0 0 0 0 0 0 0 0 0 0 0 0 0 37 0 0 0 0 0 0 0 0 0 0 0 0 0 0 0 0 0 0 0 0 0 0 0 0 0 0 0 29 0 0 0 29 0 0 0 0 0 0 0 0 31 0 0 0 0 0 21 0 0 0 26 0 0 0 0 0 0 0 0 0 21 0 0 0 0 30 29 0 0 
		35 0 0 0 0 0 0 0 0 0 0 0 0 0 0 0 0 0 0 0 0 26 0 0 0 0 0 0 0 0 0 0 0 0 0 0 0 0 0 0 0 0 0 0 0 0 0 0 0 0 0 0 0 0 0 0 0 0 0 0 29 0 0 0 0 0 0 0 0 0 0 0 0 0 0 37 0 0 0 0 0 0 0 0 0 0 0 0 0 0 0 0 0 0 0 0 0 
		36 0 0 0 0 0 0 0 0 0 0 0 0 25 0 0 0 0 0 0 0 25 0 0 0 0 0 0 0 0 0 0 0 0 0 0 0 0 0 0 0 20 0 0 0 0 0 24 0 0 0 0 0 0 0 0 0 0 0 29 0 0 0 0 0 0 0 0 0 0 0 0 33 0 0 0 0 0 0 0 0 0 0 0 37 0 0 21 0 0 35 36 0 22 0 0 0 
		37 0 0 0 0 0 0 39 27 0 0 0 0 0 0 24 0 0 0 24 26 0 0 35 0 0 0 0 0 0 0 0 0 0 0 0 0 0 0 0 0 0 0 33 39 0 0 29 0 30 0 0 0 0 0 0 0 0 0 0 0 0 0 0 0 0 0 32 37 26 0 21 0 0 40 0 0 0 0 0 0 0 0 33 21 0 0 0 0 0 0 0 0 40 0 0 0 
		38 0 0 0 0 0 0 0 0 0 0 0 0 0 0 0 0 0 0 0 0 0 0 0 0 0 0 0 0 0 0 0 0 0 0 0 0 0 0 0 0 0 0 0 0 0 0 0 0 0 0 25 0 0 0 0 0 0 0 0 0 0 0 0 0 0 0 0 0 0 0 0 0 0 0 20 0 0 0 0 0 0 0 0 0 0 34 0 0 0 0 0 0 0 0 0 0 
		39 21 0 0 0 0 0 0 0 0 0 0 0 0 0 0 0 0 0 0 0 0 0 0 0 0 0 0 0 21 0 32 0 0 0 0 0 0 0 0 0 0 0 0 0 0 0 0 0 0 0 0 0 0 0 21 0 0 0 0 26 0 0 0 36 0 0 0 0 0 0 31 0 0 0 25 0 0 0 0 0 0 0 0 0 0 0 0 0 0 0 0 0 0 0 0 0 
		40 27 0 0 0 29 0 0 0 0 0 0 0 0 0 0 0 0 0 0 0 0 0 0 0 0 0 0 0 34 0 0 0 0 0 0 0 20 0 0 0 0 0 0 0 0 0 26 0 33 0 28 0 0 0 0 0 0 0 0 0 0 0 0 0 26 0 0 0 0 0 0 0 0 0 0 0 0 0 0 37 0 0 0 0 0 27 0 0 0 23 0 0 0 0 0 0 
		41 0 0 0 0 0 0 0 0 0 0 0 0 0 0 33 0 0 0 0 0 0 0 0 0 0 0 0 0 0 0 0 0 0 0 0 0 0 0 0 0 0 0 0 0 0 30 0 36 0 0 0 0 0 0 0 0 0 0 27 0 0 0 26 0 0 0 0 0 0 0 31 0 0 0 0 0 0 0 0 0 0 0 0 0 0 38 0 0 0 0 0 0 0 0 0 0 
		42 0 0 0 0 0 0 0 0 0 0 0 0 0 26 0 0 0 0 0 22 0 0 0 0 0 0 35 0 0 0 0 37 0 0 0 0 0 33 0 0 0 0 0 29 0 0 0 0 0 0 0 0 0 0 40 0 0 0 0 0 0 28 0 31 0 0 0 0 0 0 0 0 0 0 0 0 0 0 0 0 0 0 0 0 0 0 0 0 0 0 0 0 0 0 0 0 
		43 0 0 31 0 0 0 0 0 0 0 0 0 0 0 0 0 0 23 27 0 0 0 0 0 0 0 37 0 0 40 0 0 0 0 0 0 0 39 0 0 0 0 29 0 0 21 0 0 0 0 0 0 0 0 0 0 0 0 31 0 0 0 0 0 0 0 0 0 0 0 20 0 0 0 0 0 0 0 0 0 0 0 0 0 0 0 0 0 0 0 0 0 0 0 0 0 
		44 0 0 0 0 0 0 0 0 0 0 0 0 0 25 0 0 0 0 0 0 0 0 0 0 0 0 0 0 0 0 0 0 0 0 0 0 0 0 0 0 0 0 0 0 0 0 0 0 0 0 0 0 0 0 0 0 0 0 0 0 0 0 0 0 0 0 0 0 0 0 0 0 31 0 0 39 0 0 0 0 0 0 0 0 0 0 0 0 0 0 37 0 0 31 0 0 
		45 0 0 0 0 0 0 0 0 0 37 34 0 0 0 0 0 0 39 0 36 0 0 0 0 0 0 0 0 0 0 0 21 0 0 0 0 0 0 0 0 0 30 0 21 0 0 0 0 0 0 0 0 27 25 31 0 36 34 0 0 0 0 24 0 0 0 0 0 0 0 0 0 0 27 0 38 0 29 0 39 38 31 0 0 29 0 0 0 0 0 40 0 0 0 0 0 
		46 25 0 0 0 0 0 0 0 0 0 0 20 0 0 0 0 0 0 0 0 0 0 36 0 0 0 0 0 0 0 0 0 29 0 0 0 24 29 0 0 26 0 0 0 0 0 0 0 0 0 0 0 31 0 0 0 0 0 0 0 0 0 0 0 0 30 0 0 0 0 0 0 26 0 0 0 0 0 0 0 0 0 0 0 37 0 0 0 0 0 0 0 23 0 0 0 
		47 0 23 0 0 0 0 0 0 0 0 0 0 0 0 0 0 0 0 21 0 0 0 0 0 0 0 0 0 0 0 34 0 0 0 0 0 0 0 0 0 0 36 0 0 0 0 0 0 0 0 0 0 0 0 0 0 0 0 0 0 0 0 0 0 0 25 0 0 0 0 0 0 0 0 0 0 0 0 0 32 0 0 0 0 0 0 0 0 0 0 0 0 0 0 30 0 
		48 0 24 0 0 38 0 0 0 0 40 0 0 0 0 0 0 0 0 0 0 0 0 0 20 0 0 0 0 30 0 0 0 0 0 0 0 0 30 0 0 33 0 0 0 0 0 0 0 0 0 30 0 38 0 0 39 0 0 0 0 29 40 0 0 0 0 0 0 0 0 0 28 0 0 0 0 0 0 32 0 0 0 0 0 0 0 0 26 0 0 0 24 0 0 0 0 
		49 0 0 0 0 0 0 0 0 0 0 24 0 0 0 0 0 0 0 0 0 0 0 0 0 33 0 0 0 0 0 25 0 0 33 0 0 0 0 0 0 0 0 0 0 0 0 0 0 0 0 0 0 0 0 24 0 0 0 0 0 0 0 0 0 0 0 0 0 0 0 0 0 0 0 0 0 0 24 0 0 0 0 0 0 0 0 0 0 0 0 0 0 0 0 0 0 
		50 31 0 0 0 0 28 0 0 0 0 0 0 0 0 0 0 0 0 0 0 0 0 0 0 0 0 0 0 0 0 0 0 0 0 0 0 0 0 25 0 28 0 0 0 0 0 0 0 30 0 0 33 0 0 0 29 0 0 0 0 0 28 0 0 0 0 0 0 0 0 0 0 21 25 0 0 0 0 0 0 0 0 0 0 0 34 0 0 0 0 0 0 0 0 29 0 
		51 0 0 0 0 0 36 0 0 0 0 0 0 0 0 0 0 0 0 29 0 0 0 0 0 0 0 0 0 0 0 0 0 0 0 0 0 0 0 0 0 0 0 0 0 0 0 0 0 0 0 33 0 0 31 0 0 0 0 0 0 0 23 0 0 0 0 0 0 0 0 0 0 0 0 0 37 0 0 0 0 0 0 0 0 0 0 0 0 0 0 0 0 0 0 20 0 
		52 0 0 0 0 0 0 32 0 0 0 34 0 0 0 0 0 0 0 0 0 0 0 26 0 0 0 0 0 0 0 0 0 0 22 0 0 0 0 0 0 0 0 0 0 0 27 31 0 38 0 0 0 0 26 0 0 0 0 0 0 0 0 31 0 0 0 0 0 0 0 0 0 0 0 0 23 0 38 27 0 0 0 0 0 0 0 29 0 0 0 23 0 0 0 0 0 
		53 0 0 33 0 0 0 0 0 20 0 0 35 0 0 0 0 0 0 0 0 0 0 0 0 0 0 0 0 0 0 0 0 0 0 0 0 0 0 0 0 0 0 0 0 0 25 0 0 0 0 0 31 26 0 0 0 0 0 23 0 35 0 0 0 0 0 0 0 0 0 0 0 36 0 0 0 0 0 0 0 0 0 0 0 0 0 27 0 0 0 0 0 0 37 0 0 
		54 0 0 0 28 0 0 0 0 0 0 0 0 0 22 0 0 0 29 0 36 26 0 0 0 0 0 0 0 0 0 0 0 0 0 29 0 0 0 0 21 0 0 40 0 0 31 0 0 0 24 0 0 0 0 0 0 0 0 0 0 22 0 0 0 0 0 0 24 27 0 0 0 0 37 0 0 0 0 0 0 0 0 0 0 0 0 0 35 0 24 0 0 0 0 0 0 
		55 20 0 0 0 0 0 0 0 0 0 20 0 0 0 0 0 0 40 0 29 0 29 0 0 0 0 0 0 0 0 21 0 0 0 0 0 0 0 0 0 0 0 0 0 0 0 0 0 39 0 29 0 0 0 0 0 0 0 34 0 0 0 0 0 0 0 0 0 0 0 0 23 34 0 0 0 0 0 0 0 0 34 0 0 0 0 0 0 0 0 0 0 0 0 0 0 
		56 0 0 0 0 0 0 0 0 0 0 36 0 0 0 0 0 0 20 35 0 38 0 0 0 0 0 0 0 0 0 0 0 0 0 0 0 0 0 0 0 0 0 0 0 0 36 0 0 0 0 0 0 0 0 0 0 0 0 0 0 0 0 0 0 0 0 0 37 0 0 0 0 0 0 0 0 0 0 0 0 0 0 0 39 29 0 0 0 0 0 0 0 0 0 0 31 
		57 0 0 0 0 0 0 0 0 0 0 0 27 0 0 0 0 0 0 0 0 0 0 27 0 0 0 0 22 0 25 30 0 0 0 0 0 0 0 0 0 0 0 0 0 0 34 0 0 0 0 0 0 0 0 0 0 0 0 0 0 0 0 0 0 0 0 0 35 0 0 0 0 0 29 0 38 0 0 0 0 22 0 0 0 0 0 0 0 0 28 0 0 0 23 0 0 
		58 0 21 0 0 0 34 0 0 0 0 0 0 33 0 0 0 0 0 0 0 0 0 0 0 0 0 0 0 0 0 0 0 0 0 29 0 29 0 0 0 0 27 0 31 0 0 0 0 0 0 0 0 0 23 0 34 0 0 0 0 0 0 0 0 0 0 37 0 0 0 0 0 27 0 0 0 0 21 0 0 0 0 0 24 0 21 0 0 0 0 0 0 0 0 0 0 
		59 0 0 0 0 0 0 0 34 0 0 0 0 0 0 0 0 0 0 0 0 0 0 0 0 0 0 36 0 0 0 0 0 0 0 0 29 0 0 0 26 0 0 0 0 0 0 0 0 0 0 0 0 0 0 0 0 0 0 0 0 0 0 0 0 0 0 0 0 0 0 0 0 39 0 0 0 0 0 0 0 0 0 0 0 0 0 0 0 28 0 0 0 0 0 0 0 
		60 0 0 0 0 0 0 0 0 0 0 0 31 0 0 0 0 0 0 30 0 0 0 0 0 0 0 0 0 0 0 29 0 0 0 0 0 0 0 0 0 0 0 0 0 0 0 0 0 29 0 0 0 0 35 22 0 0 0 0 0 0 0 0 0 0 0 0 0 0 0 0 37 25 0 0 0 0 0 0 0 0 0 0 0 0 0 40 35 0 0 30 0 0 0 0 0 
		61 0 0 0 0 35 0 0 21 0 0 0 0 34 0 0 0 0 0 0 0 0 0 0 0 0 0 0 0 0 0 0 0 0 0 0 0 0 0 0 0 0 0 28 0 0 0 0 0 40 0 28 23 0 0 0 0 0 0 0 0 0 0 0 0 0 0 33 0 0 0 0 0 0 0 35 0 0 0 0 0 0 0 0 0 0 0 0 0 0 0 25 25 0 0 0 0 
		62 25 0 0 0 0 0 32 0 40 0 0 0 24 0 0 32 23 40 32 23 27 0 0 0 0 34 0 0 0 0 0 0 0 0 0 0 0 0 0 0 0 26 0 0 0 24 0 0 0 0 0 0 31 0 0 0 0 0 0 0 0 0 0 0 0 0 0 0 0 0 0 0 0 0 0 0 0 0 0 0 0 0 0 0 0 0 0 0 0 0 30 0 0 0 0 0 
		63 0 0 0 0 40 21 0 0 0 0 0 0 0 0 0 0 0 0 31 21 0 0 0 37 0 0 0 0 0 0 0 0 31 0 0 0 0 0 0 36 0 0 31 0 0 0 0 0 0 0 0 0 0 0 0 0 0 0 0 0 0 0 0 0 0 0 0 0 0 0 0 0 0 0 0 0 0 0 0 0 0 0 0 0 0 0 0 0 0 0 0 0 0 0 40 0 
		64 0 28 0 0 0 0 0 0 0 0 0 0 0 0 0 0 0 0 0 22 0 0 0 0 32 0 0 0 40 0 0 35 0 0 0 0 0 0 0 0 26 0 0 0 0 0 0 0 0 0 0 0 0 0 0 0 0 0 0 0 0 0 0 0 0 0 0 25 0 38 0 0 0 0 0 0 0 0 0 0 0 0 0 37 31 0 0 0 0 0 37 28 0 0 23 0 
		65 0 0 0 0 0 0 0 23 0 0 0 0 0 0 0 0 0 0 0 0 35 0 0 0 0 0 0 0 38 0 24 0 30 0 0 0 0 0 0 0 0 0 0 0 0 0 30 25 0 0 0 0 0 0 0 0 0 0 0 0 0 0 0 0 0 0 0 20 38 0 0 0 26 0 0 0 23 0 27 0 27 0 0 0 0 0 35 0 0 0 0 0 0 0 0 0 
		66 0 32 0 0 0 0 0 23 0 0 0 0 39 0 0 0 36 0 0 0 0 0 0 31 28 0 0 0 0 0 0 0 32 0 0 0 0 32 0 0 0 0 0 0 0 0 0 0 0 0 0 0 0 0 0 0 0 0 37 0 0 33 0 0 0 0 0 0 0 0 35 0 0 0 0 0 0 0 0 0 0 0 37 0 0 0 0 0 0 0 0 0 0 0 30 0 
		67 0 0 0 0 0 0 0 0 0 37 0 0 0 0 0 0 0 0 0 0 0 0 26 0 20 0 0 0 0 0 0 0 0 0 31 0 0 37 0 0 0 0 0 0 0 0 0 0 0 0 0 0 0 0 24 0 37 35 0 0 0 0 0 0 25 20 0 0 0 0 0 0 0 0 0 0 0 0 0 0 0 0 0 37 0 0 30 0 0 39 0 0 0 0 0 0 
		68 0 0 0 0 0 0 0 0 0 0 0 0 0 0 0 0 0 0 24 0 0 0 27 36 39 0 0 26 0 0 0 28 0 26 0 0 0 26 0 0 0 0 0 0 0 0 0 0 0 0 0 0 0 0 27 0 0 0 0 0 0 0 0 0 0 38 0 0 0 20 0 0 0 0 0 33 0 0 0 0 0 0 0 0 0 0 0 0 0 0 0 0 0 0 0 0 
		69 0 0 0 0 0 0 0 0 0 0 33 0 0 39 0 0 0 25 0 0 40 0 0 0 0 0 0 0 0 0 0 0 0 0 0 0 0 0 0 0 0 0 0 0 0 0 0 0 0 0 0 0 0 0 0 0 0 0 0 0 0 0 0 0 38 0 0 0 20 0 0 0 0 0 0 0 0 31 0 0 0 0 0 0 0 0 0 36 0 0 0 0 0 0 0 0 
		70 0 0 0 0 0 0 40 0 0 21 0 0 0 25 0 0 0 0 0 0 0 0 21 0 0 0 0 0 0 0 0 21 0 0 0 0 0 21 0 31 0 31 0 20 0 0 0 0 0 0 0 0 0 0 0 0 0 0 0 0 0 0 0 0 0 0 35 0 0 0 0 0 0 0 0 0 0 0 0 0 0 0 39 34 0 0 0 0 0 0 0 0 0 0 0 0 
		71 0 0 0 0 0 0 0 0 36 0 0 0 0 0 0 0 0 0 0 38 24 0 0 0 0 0 0 0 0 0 0 0 0 0 0 0 33 0 0 0 0 0 0 0 0 0 0 0 28 0 0 0 0 0 0 23 0 0 0 0 37 0 0 0 0 0 0 0 0 0 0 0 0 0 30 0 34 0 0 0 0 0 0 0 0 0 0 0 0 0 0 0 0 0 0 0 
		72 0 31 0 29 0 0 0 0 0 0 0 21 0 38 0 0 0 0 0 20 0 0 0 0 0 0 36 0 0 0 0 0 0 0 0 0 0 0 0 0 0 0 0 0 31 0 26 0 0 0 21 0 0 36 0 34 0 0 27 39 25 0 0 0 0 26 0 0 0 0 0 0 0 32 39 0 0 0 24 0 0 0 0 0 21 0 0 0 0 0 0 0 0 0 0 38 
		73 0 20 0 28 0 0 0 34 0 0 0 0 0 20 0 0 0 20 0 0 0 0 0 0 30 0 0 31 0 0 21 35 0 0 21 0 0 40 0 0 0 0 0 0 0 27 0 0 0 0 25 0 0 0 37 0 0 29 0 0 0 0 0 0 0 0 0 0 0 0 0 0 32 0 0 0 0 0 0 0 40 0 0 0 0 0 29 0 0 0 0 0 0 0 0 35 
		74 0 24 25 0 0 0 0 0 0 0 0 0 20 0 30 0 0 0 0 0 0 0 0 0 0 0 0 0 0 0 0 0 0 0 0 37 0 0 20 25 0 0 0 0 0 0 0 0 0 0 0 0 0 0 0 0 0 0 0 0 0 35 0 0 0 0 0 0 0 0 0 30 39 0 0 0 0 0 0 0 0 0 0 0 0 0 0 0 0 29 0 0 0 0 0 0 
		75 0 40 0 0 0 0 0 0 0 0 27 0 0 31 0 0 0 23 26 0 0 0 0 0 35 0 0 0 0 0 0 0 0 0 0 0 0 0 0 0 0 0 0 0 39 38 0 0 0 0 0 37 23 0 0 0 0 38 0 0 0 0 0 0 0 0 0 0 33 0 0 0 0 0 0 0 0 36 0 0 27 0 0 0 0 0 0 0 23 0 0 0 0 0 0 27 
		76 0 0 0 0 0 0 0 0 0 38 0 0 0 0 0 0 0 0 0 0 0 0 0 0 0 0 0 0 35 0 0 0 0 0 0 0 0 0 0 0 0 0 0 0 0 0 0 0 0 0 0 0 0 0 0 0 0 0 0 0 0 0 0 0 0 23 0 0 0 0 0 34 0 0 0 0 0 0 38 0 0 0 0 0 0 0 0 0 0 0 0 0 0 0 0 0 
		77 0 0 0 0 0 0 0 0 0 0 34 0 0 0 39 0 0 0 0 0 0 0 0 0 0 0 0 0 0 26 0 0 0 0 26 0 0 0 0 0 0 0 0 0 0 29 0 0 0 24 0 0 38 0 0 0 0 0 21 0 0 0 0 0 0 0 0 0 0 31 0 0 0 0 0 36 0 0 0 0 0 0 0 0 35 0 0 0 0 0 0 0 0 0 0 0 
		78 27 0 23 0 0 0 0 0 0 0 0 0 0 0 0 0 0 0 0 0 0 0 0 0 0 0 0 0 31 0 36 33 0 0 0 0 0 0 0 0 0 0 0 0 0 0 0 0 32 0 0 0 27 0 0 0 0 0 0 0 0 0 0 0 0 27 0 0 0 0 0 0 24 0 0 0 38 0 0 0 0 0 0 40 0 0 0 0 0 0 39 0 0 0 0 23 
		79 0 0 0 0 0 0 0 0 0 0 0 0 0 0 0 0 0 0 0 0 0 0 0 0 0 0 0 0 0 0 30 0 0 0 0 0 0 0 0 0 37 0 0 0 0 39 0 32 0 0 0 0 0 0 0 0 0 0 0 0 0 0 0 0 0 0 0 0 0 0 0 0 0 0 0 0 0 0 0 0 0 0 0 0 0 0 0 0 0 0 0 0 0 0 0 0 
		80 0 0 0 0 0 0 0 0 0 0 0 0 0 0 0 0 0 0 0 0 0 0 21 0 0 0 0 0 0 0 24 0 0 0 0 0 0 0 0 0 0 0 0 0 0 38 0 0 0 0 0 0 0 0 0 0 0 22 0 0 0 0 0 0 0 27 0 0 0 0 0 0 0 40 0 27 0 0 0 0 0 0 0 0 33 0 0 0 0 25 0 0 24 0 0 0 
		81 0 29 0 0 0 0 0 0 0 0 0 0 0 0 39 0 0 0 35 0 0 0 0 0 0 0 0 0 0 0 0 0 0 0 0 0 0 0 0 0 0 0 0 0 0 31 0 0 0 0 0 0 0 0 0 34 0 0 0 0 0 0 0 0 0 0 0 0 0 0 0 0 0 0 0 0 0 0 0 0 0 0 0 0 0 0 0 0 0 0 0 0 30 0 0 0 
		82 0 0 0 0 0 0 29 0 0 0 0 0 0 0 0 36 0 0 0 0 0 0 0 0 0 0 0 0 0 0 0 0 0 0 0 0 0 33 0 0 0 0 0 0 0 0 0 0 0 0 0 0 0 0 0 0 0 0 0 0 0 0 0 0 0 0 37 0 0 0 39 0 0 0 0 0 0 0 0 0 0 0 0 26 0 0 36 0 0 0 0 0 0 0 38 0 
		83 0 0 0 0 0 0 0 0 0 0 0 24 0 0 0 0 0 30 40 0 0 0 0 0 0 0 0 0 0 0 0 0 0 0 0 0 37 21 0 0 0 0 0 0 0 0 0 0 0 0 0 0 0 0 0 0 39 0 24 0 0 0 0 0 37 0 0 37 0 0 34 0 0 0 0 0 0 0 40 0 0 0 26 0 0 0 0 0 0 0 0 0 0 21 0 0 
		84 0 0 25 22 0 0 26 0 0 0 0 0 0 22 0 0 0 25 38 0 0 0 0 0 0 0 0 0 0 0 0 0 0 0 0 0 0 0 0 0 0 0 0 0 0 29 37 0 0 0 0 0 0 0 0 0 29 0 0 0 0 0 0 0 31 0 0 0 0 0 0 0 21 0 0 0 0 35 0 0 33 0 0 0 0 0 0 20 0 0 0 0 0 0 0 0 
		85 0 0 33 0 0 0 0 0 0 0 0 0 0 0 0 0 0 0 0 0 0 23 0 0 0 0 0 0 0 0 0 0 0 0 0 0 0 0 34 0 27 38 0 0 0 0 0 0 0 0 34 0 0 0 0 0 0 0 21 0 0 0 0 0 0 0 0 0 0 0 0 0 0 0 0 0 0 0 0 0 0 0 0 0 0 0 0 22 0 0 0 0 0 0 25 0 
		86 0 34 0 0 0 0 0 0 0 0 0 29 0 0 39 0 0 0 38 20 0 32 0 0 0 0 0 0 0 0 0 0 0 0 0 0 21 0 0 0 0 0 0 0 0 0 0 0 0 0 0 0 29 27 0 0 0 0 0 0 40 0 0 0 0 35 0 30 0 0 0 0 0 29 0 0 0 0 0 0 0 0 36 0 0 0 0 0 0 0 0 0 0 0 0 0 
		87 0 0 0 0 0 0 0 27 0 0 0 0 26 0 23 0 0 0 0 29 28 0 0 37 0 0 26 0 0 0 0 0 0 0 21 0 0 0 0 0 0 0 0 0 0 0 0 0 26 0 0 0 0 0 35 0 0 0 0 0 35 0 0 0 0 0 0 0 0 36 0 0 0 0 0 0 0 0 0 0 0 0 0 0 20 22 0 0 0 0 0 0 0 0 0 0 
		88 0 0 0 0 0 0 0 0 0 0 0 0 0 0 27 0 21 0 0 27 23 0 0 0 0 0 40 0 0 0 0 0 29 0 0 0 0 0 0 0 0 0 0 0 0 0 0 0 0 0 0 0 0 0 0 0 0 0 0 28 0 0 0 0 0 0 0 0 0 0 0 0 0 0 0 23 0 0 0 0 0 0 0 0 0 0 0 0 0 0 0 0 0 0 0 0 
		89 40 0 0 0 0 0 0 0 0 33 0 0 0 0 0 0 0 32 0 0 31 0 0 0 0 0 0 22 0 0 0 0 0 0 0 0 35 0 0 0 23 0 0 0 0 0 0 0 0 0 0 0 0 0 24 0 0 28 0 0 0 0 0 0 0 0 0 39 0 0 0 0 0 0 29 0 0 0 0 0 25 0 0 0 0 0 0 0 0 0 0 0 0 0 0 0 
		90 0 0 0 0 0 0 0 0 0 31 0 30 0 0 0 0 0 0 0 0 0 0 0 0 24 0 0 0 0 0 0 0 0 0 0 0 36 0 0 0 0 0 0 0 37 40 0 0 0 0 0 0 23 0 0 0 0 0 0 0 30 25 30 0 37 0 0 0 0 0 0 0 0 0 0 0 0 0 39 0 0 0 0 0 0 0 0 0 0 0 0 0 0 0 0 0 
		91 0 0 0 0 0 0 0 0 0 0 0 0 39 0 0 0 0 0 0 0 0 0 0 0 32 0 0 0 0 0 0 0 0 0 0 0 0 0 0 0 0 0 0 0 0 0 0 0 24 0 0 0 0 0 0 0 0 0 0 0 0 25 0 0 28 0 0 0 0 0 0 0 0 0 0 0 0 0 0 0 0 0 0 0 0 0 0 0 0 0 0 0 0 0 27 0 
		92 0 0 0 0 0 0 0 0 0 0 0 39 0 0 0 0 0 31 0 0 0 0 0 0 0 0 0 0 0 0 0 0 0 0 30 0 22 40 0 0 0 0 0 0 0 0 23 0 0 0 0 0 0 0 0 0 0 0 0 0 0 0 0 0 0 0 0 0 0 0 0 0 0 0 0 0 0 0 0 0 24 30 0 0 0 0 0 0 0 0 0 0 0 0 0 0 
		93 0 0 0 0 0 25 0 0 0 0 0 0 31 0 0 0 0 0 0 0 0 0 0 0 0 0 0 0 0 0 0 0 0 0 29 0 0 0 0 0 0 0 0 0 31 0 0 0 0 0 0 0 0 37 0 0 0 23 0 0 0 0 0 0 0 0 0 0 0 0 0 0 0 0 0 0 0 0 0 0 0 0 0 21 0 0 0 0 0 0 0 0 0 0 0 0 
		94 0 0 0 0 0 0 0 0 0 0 0 0 0 0 0 0 39 0 0 0 0 0 0 0 0 0 0 0 0 0 0 0 0 0 0 0 0 0 0 0 0 0 0 0 0 0 0 30 0 0 29 20 0 0 0 0 0 0 0 0 0 0 0 40 23 0 30 0 0 0 0 0 0 0 0 0 0 0 0 0 0 0 38 0 0 25 0 0 0 0 0 27 0 0 0 0 
		95 0 32 0 0 0 0 0 0 0 0 22 0 0 21 0 0 0 0 0 0 0 0 0 0 0 0 0 39 24 0 0 0 0 0 0 0 0 0 0 0 0 0 0 0 0 0 0 0 0 0 0 0 0 0 0 0 31 0 0 0 0 0 0 0 0 0 0 0 0 0 0 0 38 35 0 27 0 0 23 0 0 0 0 0 0 0 0 0 0 0 0 0 0 0 0 0 
;
